200,161
282,535
281,610
300,787
452,721
282,535
452,721
560,494
690,378
822,212
935,152
1108,267
736,577
672,465
654,491
681,496
593,527
652,410
512,575
591,406
736,235
760,-97
935,152
1155,481
1045,670
975,555
822,212
820,-21
694,380
690,378
616,-8
591,406
300,787
281,610
439,230
368,305
453,480
1066,345
977,360
850,529
935,660
1045,670
975,555
977,360
